(set-logic QF_S)
(declare-fun var0 () String)
(assert (str.in.re var0 (re.++ (re.+ (re.+ (str.to.re "000"))) (re.++ (re.+ (re.* (str.to.re "11"))) (re.++ (re.+ (re.+ (str.to.re "222"))) (re.++ (re.+ (re.union (str.to.re "3") (str.to.re "4"))) (re.++ (re.+ (re.* (str.to.re "55"))) (re.++ (re.+ (re.* (str.to.re "6"))) (re.++ (re.+ (re.* (str.to.re "7"))) (re.++ (re.* (re.* (str.to.re "8"))) (re.++ (re.+ (re.+ (str.to.re "99"))) (re.++ (re.* (re.union (str.to.re "a") (str.to.re "bb"))) (re.++ (re.union (re.union (str.to.re "c") (str.to.re "ddd")) (re.union (str.to.re "eee") (str.to.re "fff"))) (re.++ (re.* (re.* (str.to.re "gg"))) (re.++ (re.+ (re.+ (str.to.re "hh"))) (re.++ (re.+ (re.+ (str.to.re "i"))) (re.++ (re.+ (re.+ (str.to.re "jjj"))) (re.++ (re.* (re.union (str.to.re "k") (str.to.re "lll"))) (re.++ (re.* (re.union (str.to.re "mmm") (str.to.re "n"))) (re.++ (re.* (re.union (str.to.re "o") (str.to.re "p"))) (re.++ (re.* (re.* (str.to.re "qq"))) (re.++ (re.* (re.* (str.to.re "r"))) (re.++ (re.union (re.+ (str.to.re "s")) (re.+ (str.to.re "tt"))) (re.++ (re.union (re.+ (str.to.re "uuu")) (re.+ (str.to.re "v"))) (re.++ (re.* (re.+ (str.to.re "ww"))) (re.++ (re.+ (re.+ (str.to.re "xx"))) (re.++ (re.* (re.* (str.to.re "yy"))) (re.++ (re.* (re.union (str.to.re "zzz") (str.to.re "AAA"))) (re.++ (re.* (re.union (str.to.re "BBB") (str.to.re "C"))) (re.++ (re.union (re.+ (str.to.re "D")) (re.+ (str.to.re "E"))) (re.++ (re.+ (re.union (str.to.re "F") (str.to.re "G"))) (re.++ (re.union (re.* (str.to.re "HH")) (re.* (str.to.re "II"))) (re.++ (re.* (re.+ (str.to.re "JJ"))) (re.++ (re.union (re.union (str.to.re "KKK") (str.to.re "LL")) (re.union (str.to.re "M") (str.to.re "NNN"))) (re.++ (re.union (re.union (str.to.re "OO") (str.to.re "PPP")) (re.union (str.to.re "QQQ") (str.to.re "RRR"))) (re.++ (re.union (re.+ (str.to.re "SSS")) (re.+ (str.to.re "T"))) (re.++ (re.union (re.* (str.to.re "U")) (re.* (str.to.re "VVV"))) (re.++ (re.* (re.+ (str.to.re "WWW"))) (re.union (re.* (str.to.re "XX")) (re.* (str.to.re "YYY")))))))))))))))))))))))))))))))))))))))))
(check-sat)